qbf_easy_train/easy_956_UNSAT.qdimacs
p cnf 40 121
a 8 20 15 0
e 1 2 3 4 5 6 7 9 10 11 12 13 14 16 17 18 19 21 22 23 24 25 26 27 28 29 30 31 32 33 34 35 36 37 38 39 40 0
-2 3 -4 0
2 -3 -4 0
-2 -3 4 0
2 3 4 0
5 -1 0
5 4 0
1 -4 -5 0
6 -5 0
6 4 0
5 -4 -6 0
-8 -7 -9 0
8 7 -9 0
-8 7 9 0
8 -7 9 0
10 7 0
10 9 0
-7 -9 -10 0
11 -5 0
11 -9 0
5 9 -11 0
11 -1 -12 0
-11 1 -12 0
11 1 12 0
-11 -1 12 0
-14 -13 0
-14 8 0
13 -8 14 0
-15 -2 0
-15 14 0
2 -14 15 0
-17 -2 0
-17 16 0
2 -16 17 0
-15 -17 -18 0
15 17 -18 0
-15 17 18 0
15 -17 18 0
-12 -18 -19 0
12 18 -19 0
-12 18 19 0
12 -18 19 0
20 10 0
20 19 0
-10 -19 -20 0
-21 3 0
-21 2 0
-3 -2 21 0
22 -7 0
22 -8 0
7 8 -22 0
-9 16 -23 0
9 -16 -23 0
-9 -16 23 0
9 16 23 0
-22 -23 -24 0
22 23 -24 0
-22 23 24 0
22 -23 24 0
-25 -21 0
-25 24 0
21 -24 25 0
-26 20 0
-26 25 0
-20 -25 26 0
27 7 0
27 3 0
-7 -3 -27 0
22 -15 -28 0
-22 15 -28 0
22 15 28 0
-22 -15 28 0
30 -29 0
30 15 0
29 -15 -30 0
28 -30 -31 0
-28 30 -31 0
28 30 31 0
-28 -30 31 0
32 -27 0
32 -31 0
27 31 -32 0
2 -13 -33 0
-2 13 -33 0
2 13 33 0
-2 -13 33 0
-34 -11 0
-34 33 0
11 -33 34 0
35 32 0
35 -34 0
-32 34 -35 0
-2 -23 -36 0
2 23 -36 0
-2 23 36 0
2 -23 36 0
36 22 -37 0
-36 -22 -37 0
36 -22 37 0
-36 22 37 0
38 -35 0
38 -37 0
35 37 -38 0
26 38 -39 0
-26 -38 -39 0
26 -38 39 0
-26 38 39 0
-40 -6 0
-40 -39 0
6 39 40 0
-4 -33 30 37 1 0
-29 -19 38 31 12 -10 0
34 10 -2 16 -39 0
1 3 12 -4 0
30 8 37 -27 36 -26 0
-20 -24 28 15 -37 -40 -14 0
28 35 29 -34 0
5 -8 15 2 37 -20 0
-27 23 -6 -29 -39 20 0
38 -28 -37 -26 40 39 0
5 -15 -9 30 -13 -29 0
40 0
