sat_easy_train/easy_956_UNSAT.dimacs
p cnf 134 466
3 -1 0
3 -2 0
1 2 -3 0
-2 -3 -4 0
2 3 -4 0
-2 3 4 0
2 -3 4 0
-1 4 -5 0
1 -4 -5 0
-1 -4 5 0
1 4 5 0
-5 6 -7 0
5 -6 -7 0
-5 -6 7 0
5 6 7 0
7 -5 -8 0
-7 5 -8 0
7 5 8 0
-7 -5 8 0
-9 -8 0
-9 -5 0
8 5 9 0
10 5 0
10 4 0
-5 -4 -10 0
11 -9 0
11 -10 0
9 10 -11 0
13 -1 0
13 -12 0
1 12 -13 0
-13 14 -15 0
13 -14 -15 0
-13 -14 15 0
13 14 15 0
-16 11 0
-16 15 0
-11 -15 16 0
-18 14 0
-18 17 0
-14 -17 18 0
-19 10 0
-19 -18 0
-10 18 19 0
21 -22 -23 0
-21 22 -23 0
21 22 23 0
-21 -22 23 0
20 -23 -24 0
-20 23 -24 0
20 23 24 0
-20 -23 24 0
-25 8 0
-25 -24 0
-8 24 25 0
12 25 -26 0
-12 -25 -26 0
12 -25 26 0
-12 25 26 0
27 -19 0
27 26 0
19 -26 -27 0
28 16 0
28 27 0
-16 -27 -28 0
-29 -24 0
-29 3 0
24 -3 29 0
-29 18 -30 0
29 -18 -30 0
-29 -18 30 0
29 18 30 0
-31 -12 0
-31 -30 0
12 30 31 0
-33 32 0
-33 -32 0
33 5 -34 0
-33 -5 -34 0
33 -5 34 0
-33 5 34 0
35 14 0
35 10 0
-14 -10 -35 0
-36 34 0
-36 -35 0
-34 35 36 0
37 36 0
37 3 0
-36 -3 -37 0
-31 37 -38 0
31 -37 -38 0
-31 -37 38 0
31 37 38 0
-25 39 -40 0
25 -39 -40 0
-25 -39 40 0
25 39 40 0
38 40 -41 0
-38 -40 -41 0
38 -40 41 0
-38 40 41 0
-28 -41 -42 0
28 41 -42 0
-28 41 42 0
28 -41 42 0
-44 -43 0
-44 25 0
43 -25 44 0
23 -45 -46 0
-23 45 -46 0
23 45 46 0
-23 -45 46 0
47 33 0
47 46 0
-33 -46 -47 0
-22 47 -48 0
22 -47 -48 0
-22 -47 48 0
22 47 48 0
-2 -48 -49 0
2 48 -49 0
-2 48 49 0
2 -48 49 0
-50 -49 0
-50 -48 0
49 48 50 0
51 24 0
51 14 0
-24 -14 -51 0
52 -50 0
52 -51 0
50 51 -52 0
53 44 0
53 -52 0
-44 52 -53 0
54 42 0
54 53 0
-42 -53 -54 0
55 45 0
55 -1 0
-45 1 -55 0
-57 -56 0
-57 10 0
56 -10 57 0
-43 57 -58 0
43 -57 -58 0
-43 -57 58 0
43 57 58 0
59 58 0
59 -30 0
-58 30 -59 0
-17 59 -60 0
17 -59 -60 0
-17 -59 60 0
17 59 60 0
-61 -60 0
-61 39 0
60 -39 61 0
-62 -20 0
-62 -45 0
20 45 62 0
-62 -9 -63 0
62 9 -63 0
-62 9 63 0
62 -9 63 0
-64 -61 0
-64 63 0
61 -63 64 0
-65 55 0
-65 64 0
-55 -64 65 0
-66 24 0
-66 18 0
-24 -18 66 0
67 -66 0
67 5 0
66 -5 -67 0
-32 -5 -68 0
32 5 -68 0
-32 5 68 0
32 -5 68 0
-2 43 -69 0
2 -43 -69 0
-2 -43 69 0
2 43 69 0
-5 7 -70 0
5 -7 -70 0
-5 -7 70 0
5 7 70 0
-71 70 0
-71 12 0
-70 -12 71 0
72 -69 0
72 71 0
69 -71 -72 0
-32 -1 -73 0
32 1 -73 0
-32 1 73 0
32 -1 73 0
-73 -23 -74 0
73 23 -74 0
-73 23 74 0
73 -23 74 0
75 -69 0
75 74 0
69 -74 -75 0
29 -71 -76 0
-29 71 -76 0
29 71 76 0
-29 -71 76 0
75 76 -77 0
-75 -76 -77 0
75 -76 77 0
-75 76 77 0
78 -72 0
78 77 0
72 -77 -78 0
-22 -56 -79 0
22 56 -79 0
-22 56 79 0
22 -56 79 0
80 -79 0
80 -59 0
79 59 -80 0
-81 -78 0
-81 80 0
78 -80 81 0
82 -68 0
82 81 0
68 -81 -82 0
-83 43 0
-83 79 0
-43 -79 83 0
18 22 -84 0
-18 -22 -84 0
18 -22 84 0
-18 22 84 0
69 -84 -85 0
-69 84 -85 0
69 84 85 0
-69 -84 85 0
14 17 -86 0
-14 -17 -86 0
14 -17 86 0
-14 17 86 0
71 -86 -87 0
-71 86 -87 0
71 86 87 0
-71 -86 87 0
87 -86 -88 0
-87 86 -88 0
87 86 88 0
-87 -86 88 0
-89 85 0
-89 -88 0
-85 88 89 0
90 83 0
90 -89 0
-83 89 -90 0
-91 82 0
-91 90 0
-82 -90 91 0
92 -60 0
92 84 0
60 -84 -92 0
-93 -92 0
-93 -84 0
92 84 93 0
-91 93 -94 0
91 -93 -94 0
-91 -93 94 0
91 93 94 0
67 -94 -95 0
-67 94 -95 0
67 94 95 0
-67 -94 95 0
97 -22 0
97 86 0
22 -86 -97 0
46 25 -98 0
-46 -25 -98 0
46 -25 98 0
-46 25 98 0
99 -97 0
99 -98 0
97 98 -99 0
-96 -99 -100 0
96 99 -100 0
-96 99 100 0
96 -99 100 0
-43 -13 -101 0
43 13 -101 0
-43 13 101 0
43 -13 101 0
-102 -101 0
-102 48 0
101 -48 102 0
103 -3 0
103 12 0
3 -12 -103 0
-104 102 0
-104 -103 0
-102 103 104 0
-105 20 0
-105 33 0
-20 -33 105 0
106 -104 0
106 -105 0
104 105 -106 0
-100 -106 -107 0
100 106 -107 0
-100 106 107 0
100 -106 107 0
-32 17 -108 0
32 -17 -108 0
-32 -17 108 0
32 17 108 0
108 60 -109 0
-108 -60 -109 0
108 -60 109 0
-108 60 109 0
-18 43 -110 0
18 -43 -110 0
-18 -43 110 0
18 43 110 0
-110 79 -111 0
110 -79 -111 0
-110 -79 111 0
110 79 111 0
-71 112 0
71 112 0
113 111 0
113 112 0
-111 -112 -113 0
-109 113 -114 0
109 -113 -114 0
-109 -113 114 0
109 113 114 0
-115 13 0
-115 -5 0
-13 5 115 0
-116 -12 0
-116 -115 0
12 115 116 0
-114 -116 -117 0
114 116 -117 0
-114 116 117 0
114 -116 117 0
118 107 0
118 117 0
-107 -117 -118 0
-120 -119 0
-120 -12 0
119 12 120 0
-121 118 0
-121 120 0
-118 -120 121 0
122 95 0
122 -121 0
-95 121 -122 0
7 -12 -123 0
-7 12 -123 0
7 12 123 0
-7 -12 123 0
-22 74 -124 0
22 -74 -124 0
-22 -74 124 0
22 74 124 0
-124 56 -125 0
124 -56 -125 0
-124 -56 125 0
124 56 125 0
-123 125 -126 0
123 -125 -126 0
-123 -125 126 0
123 125 126 0
127 13 0
127 22 0
-13 -22 -127 0
128 -127 0
128 -48 0
127 48 -128 0
-129 -12 0
-129 -24 0
12 24 129 0
-128 129 -130 0
128 -129 -130 0
-128 -129 130 0
128 129 130 0
131 126 0
131 130 0
-126 -130 -131 0
122 131 -132 0
-122 -131 -132 0
122 -131 132 0
-122 131 132 0
-133 -65 0
-133 -132 0
65 132 133 0
-54 -133 -134 0
54 133 -134 0
-54 133 134 0
54 -133 134 0
-58 38 0
-75 -31 -105 -104 0
-89 4 2 64 -49 59 0
-113 57 9 0
65 -42 39 -30 -17 0
-106 64 -81 0
-45 -125 -116 127 -7 0
-41 -52 -65 -83 -116 0
7 119 0
2 10 0
45 -36 -126 100 0
8 64 80 134 40 112 0
12 51 5 0
35 39 -47 126 -70 -110 0
12 123 124 0
-3 -12 -4 83 108 0
-92 -112 -62 0
-11 59 0
55 122 3 86 0
-100 -64 0
-91 81 128 -32 -119 0
70 -68 6 -25 0
-90 -47 -55 0
75 82 -32 94 84 -114 0
-85 -94 -71 119 -37 125 0
51 25 -72 -19 38 0
29 -116 0
-119 -19 -117 29 33 0
-82 -72 0
-91 87 55 40 0
-32 -112 118 68 0
89 17 0
-118 -100 31 4 0
-38 3 0
31 100 -123 37 53 0
-117 114 -92 81 29 112 0
-118 57 -14 -2 37 96 0
-14 12 90 -99 0
-2 31 -114 0
126 100 97 0
37 -97 29 0
107 62 -1 -34 102 53 0
39 -133 14 -2 0
-46 -41 0
133 -6 66 0
-9 -105 50 25 -93 0
128 14 -87 12 -20 18 0
117 -9 0
-37 112 -65 -75 0
15 122 0
-9 -14 -101 -36 115 -12 0
112 43 0
-73 -107 63 -127 -122 0
-21 -27 -34 107 0
-11 14 107 -29 0
-30 65 14 -72 0
10 5 106 0
5 111 0
87 63 132 -119 0
-117 2 30 -8 -66 0
-2 -27 -13 0
134 0
